$RunnGauss
%chk=baresmallsilicon
%nproc=1
%mem=1000MB
#p opt b3lyp/6-31g(d) freq gfinput iop(6/7=3)

I draw the structure of Si with BF3.

0 1
 Si
 Si                 1              B1
 Si                 2              B2    1              A1
 Si                 3              B3    2              A2    1              D1
 Si                 4              B4    3              A3    2              D2
 Si                 5              B5    4              A4    3              D3
 Si                 6              B6    5              A5    4              D4
 Si                 3              B7    2              A6    1              D5
 Si                 2              B8    1              A7    5              D6
 H                  1              B9    2              A8    3              D7
 H                  1             B10    2              A9    3              D8
 H                  5             B11    4             A10    3              D9
 H                  4             B12    3             A11    2             D10
 H                  4             B13    3             A12    2             D11
 H                  8             B14    3             A13    2             D12
 H                  8             B15    3             A14    2             D13
 H                  7             B16    6             A15    5             D14
 H                  9             B17    2             A16    1             D15
 H                  9             B18    2             A17    1             D16
 H                  6             B19    5             A18    4             D17
 H                  6             B20    5             A19    4             D18

   B1             2.34195880
   B2             2.23523591
   B3             2.36462444
   B4             2.37209034
   B5             2.37940623
   B6             2.37978549
   B7             2.36257561
   B8             2.34198781
   B9             1.48901226
   B10            1.48941928
   B11            1.50179356
   B12            1.49115534
   B13            1.49040094
   B14            1.49150673
   B15            1.49208000
   B16            1.50159599
   B17            1.48950925
   B18            1.48928635
   B19            1.49457819
   B20            1.49389572
   A1           112.91240292
   A2            98.97389577
   A3           101.60961721
   A4           109.69623939
   A5           116.96365477
   A6            99.38856947
   A7           116.67009860
   A8           114.21048275
   A9           113.06145566
   A10          118.14026566
   A11          111.25221425
   A12          112.02292393
   A13          112.38420710
   A14          111.12092730
   A15          108.42854919
   A16          113.18342450
   A17          114.18144179
   A18          108.11695589
   A19          108.30320529
   D1           -10.41628995
   D2           -28.04216112
   D3           -56.45149871
   D4            49.80889250
   D5          -123.88575497
   D6           -89.36736510
   D7           -71.26391495
   D8           163.18906706
   D9           178.77256464
   D10         -150.21663731
   D11           88.98399325
   D12          -90.56507118
   D13          148.82259418
   D14         -179.97069884
   D15          -30.04576689
   D16         -155.60066940
   D17          172.05335493
   D18          -72.76517355

 1 2 1.0 5 1.0 10 1.0 11 1.0
 2 3 1.0 9 1.0
 3 4 1.0 8 1.0
 4 5 1.0 13 1.0 14 1.0
 5 6 1.0 12 1.0
 6 7 1.0 20 1.0 21 1.0
 7 8 1.0 9 1.0 17 1.0
 8 15 1.0 16 1.0
 9 18 1.0 19 1.0
 10
 11
 12
 13
 14
 15
 16
 17
 18
 19
 20
 21


